#************************************************************************************
#*                   Generated by cif2cell 2.0.0 2021-07-01 0:50                    *
#*  T. Bjorkman, Comp. Phys. Commun. 182, 1183-1186 (2011). Please cite generously. *
#*                                                                                  *
#*                                 None   (Halite)                                  *
#*              Wyckoff, R. W. G., Crystal Structures 1, 85-237 (1963)              *
#************************************************************************************

&CONTROL
  calculation='scf',
  outdir='.',
  prefix='{}',
  pseudo_dir='.',
  verbosity='low',
  tprnfor=.true.,
  tstress=.true.,
 /
&SYSTEM
  ibrav = 2
  A =    5.64056
  nat = 2
  ntyp = 2
  ecutwfc={},
  ecutrho={},
  input_dft='pbe',
  occupations='smearing',
  smearing='mv',
  degauss=0.005d0,
/
&ELECTRONS
   conv_thr=1d-08,
   mixing_beta=0.7d0,
/

ATOMIC_SPECIES
  Na   22.98900  Na.pbe-spn-kjpaw_psl.1.0.0.UPF
  Cl   35.45150  Cl.pbe-n-kjpaw_psl.1.0.0.UPF
ATOMIC_POSITIONS (crystal)
Cl   0.500000000000000   0.500000000000000   0.500000000000000 
Na   0.000000000000000   0.000000000000000   0.000000000000000
K_POINTS (automatic)
 {} {} {} 0 0 0
